TYPE : Vertex Cover
DIMENSION: 21
EDGE_DATA_SECTION:
0 5
0 16
1 20
2 6
2 9
3 12
5 8
6 8
6 17
6 19
7 13
7 19
8 15
8 17
9 14
9 15
9 16
10 13
13 18
18 19
18 20
-1
VERTEX_DEGREE:
2.0 1.0 2.0 1.0 0.0 2.0 4.0 2.0 4.0 4.0 1.0 0.0 1.0 3.0 1.0 2.0 2.0 2.0 3.0 3.0 2.0
VERTEX_COVER:
0 3 6 8 9 13 19 20
EOF
